c Random 3-SAT formula
c Number of variables: 7
c Number of clauses: 25
p cnf 7 25
-1 4 2 0
-3 -6 2 0
6 -7 2 0
-2 6 3 0
5 7 -6 0
-1 -5 2 0
5 1 3 0
-3 -7 6 0
-3 -4 6 0
2 3 -5 0
-7 -6 -4 0
-6 -4 5 0
-1 2 -5 0
-7 5 4 0
6 5 3 0
-6 2 7 0
-4 -2 -3 0
1 -2 -7 0
-2 -7 -1 0
-2 1 6 0
-5 4 -7 0
-2 -6 7 0
-2 1 -7 0
7 -2 3 0
3 1 7 0
